0 315.00 135.00
1 309.00 135.00
2 303.00 135.00
3 297.00 135.00
4 291.00 135.00
5 285.00 135.00
6 282.00 135.00
7 279.00 135.00
8 276.00 135.00
9 273.00 135.00
10 270.00 135.00
11 267.00 135.00
12 264.00 135.00
13 261.00 135.00
14 258.00 135.00
15 255.00 135.00
16 255.00 138.00
17 255.00 141.00
18 255.00 144.00
19 255.00 147.00
20 255.00 150.00
21 255.00 153.00
22 255.00 156.00
23 255.00 159.00
24 255.00 162.00
25 255.00 165.00
26 258.00 165.00
27 261.00 165.00
28 264.00 165.00
29 267.00 165.00
30 270.00 165.00
31 273.00 165.00
32 276.00 165.00
33 279.00 165.00
34 282.00 165.00
35 285.00 165.00
36 291.00 165.00
37 297.00 165.00
38 303.00 165.00
39 309.00 165.00
40 315.00 165.00
41 321.00 165.00
42 327.00 165.00
43 333.00 165.00
44 339.00 165.00
45 345.00 165.00
46 351.00 165.00
47 357.00 165.00
48 363.00 165.00
49 369.00 165.00
50 375.00 165.00
51 378.00 165.00
52 381.00 165.00
53 384.00 165.00
54 387.00 165.00
55 390.00 165.00
56 393.00 165.00
57 396.00 165.00
58 399.00 165.00
59 402.00 165.00
60 405.00 165.00
61 405.00 162.00
62 405.00 159.00
63 405.00 156.00
64 405.00 153.00
65 405.00 150.00
66 405.00 147.00
67 405.00 144.00
68 405.00 141.00
69 405.00 138.00
70 405.00 135.00
71 405.00 132.00
72 405.00 129.00
73 405.00 126.00
74 405.00 123.00
75 405.00 120.00
76 405.00 117.00
77 405.00 114.00
78 405.00 111.00
79 405.00 108.00
80 405.00 105.00
81 408.00 105.00
82 411.00 105.00
83 414.00 105.00
84 417.00 105.00
85 420.00 105.00
86 423.00 105.00
87 426.00 105.00
88 429.00 105.00
89 432.00 105.00
90 435.00 105.00
91 438.00 105.00
92 441.00 105.00
93 444.00 105.00
94 447.00 105.00
95 450.00 105.00
96 453.00 105.00
97 456.00 105.00
98 459.00 105.00
99 462.00 105.00
100 465.00 105.00
101 465.00 102.00
102 465.00 99.00
103 465.00 96.00
104 465.00 93.00
105 465.00 90.00
106 465.00 87.00
107 465.00 84.00
108 465.00 81.00
109 465.00 78.00
110 465.00 75.00
111 465.00 69.00
112 465.00 63.00
113 465.00 57.00
114 465.00 51.00
115 465.00 45.00
116 465.00 42.00
117 465.00 39.00
118 465.00 36.00
119 465.00 33.00
120 465.00 30.00
121 465.00 27.00
122 465.00 24.00
123 465.00 21.00
124 465.00 18.00
125 465.00 15.00
126 462.00 15.00
127 459.00 15.00
128 456.00 15.00
129 453.00 15.00
130 450.00 15.00
131 447.00 15.00
132 444.00 15.00
133 441.00 15.00
134 438.00 15.00
135 435.00 15.00
136 429.00 15.00
137 423.00 15.00
138 417.00 15.00
139 411.00 15.00
140 405.00 15.00
141 399.00 15.00
142 393.00 15.00
143 387.00 15.00
144 381.00 15.00
145 375.00 15.00
146 369.00 15.00
147 363.00 15.00
148 357.00 15.00
149 351.00 15.00
150 345.00 15.00
151 339.00 15.00
152 333.00 15.00
153 327.00 15.00
154 321.00 15.00
155 315.00 15.00
156 309.00 15.00
157 303.00 15.00
158 297.00 15.00
159 291.00 15.00
160 285.00 15.00
161 282.00 15.00
162 279.00 15.00
163 276.00 15.00
164 273.00 15.00
165 270.00 15.00
166 267.00 15.00
167 264.00 15.00
168 261.00 15.00
169 258.00 15.00
170 255.00 15.00
171 255.00 18.00
172 255.00 21.00
173 255.00 24.00
174 255.00 27.00
175 255.00 30.00
176 255.00 33.00
177 255.00 36.00
178 255.00 39.00
179 255.00 42.00
180 255.00 45.00
181 258.00 45.00
182 261.00 45.00
183 264.00 45.00
184 267.00 45.00
185 270.00 45.00
186 273.00 45.00
187 276.00 45.00
188 279.00 45.00
189 282.00 45.00
190 285.00 45.00
191 291.00 45.00
192 297.00 45.00
193 303.00 45.00
194 309.00 45.00
195 315.00 45.00
196 321.00 45.00
197 327.00 45.00
198 333.00 45.00
199 339.00 45.00
200 345.00 45.00
201 351.00 45.00
202 357.00 45.00
203 363.00 45.00
204 369.00 45.00
205 375.00 45.00
206 381.00 45.00
207 387.00 45.00
208 393.00 45.00
209 399.00 45.00
210 405.00 45.00
211 408.00 45.00
212 411.00 45.00
213 414.00 45.00
214 417.00 45.00
215 420.00 45.00
216 423.00 45.00
217 426.00 45.00
218 429.00 45.00
219 432.00 45.00
220 435.00 45.00
221 435.00 48.00
222 435.00 51.00
223 435.00 54.00
224 435.00 57.00
225 435.00 60.00
226 435.00 63.00
227 435.00 66.00
228 435.00 69.00
229 435.00 72.00
230 435.00 75.00
231 432.00 75.00
232 429.00 75.00
233 426.00 75.00
234 423.00 75.00
235 420.00 75.00
236 417.00 75.00
237 414.00 75.00
238 411.00 75.00
239 408.00 75.00
240 405.00 75.00
241 399.00 75.00
242 393.00 75.00
243 387.00 75.00
244 381.00 75.00
245 375.00 75.00
246 369.00 75.00
247 363.00 75.00
248 357.00 75.00
249 351.00 75.00
250 345.00 75.00
251 339.00 75.00
252 333.00 75.00
253 327.00 75.00
254 321.00 75.00
255 315.00 75.00
256 309.00 75.00
257 303.00 75.00
258 297.00 75.00
259 291.00 75.00
260 285.00 75.00
261 279.00 75.00
262 273.00 75.00
263 267.00 75.00
264 261.00 75.00
265 255.00 75.00
266 249.00 75.00
267 243.00 75.00
268 237.00 75.00
269 231.00 75.00
270 225.00 75.00
271 222.00 75.00
272 219.00 75.00
273 216.00 75.00
274 213.00 75.00
275 210.00 75.00
276 207.00 75.00
277 204.00 75.00
278 201.00 75.00
279 198.00 75.00
280 195.00 75.00
281 195.00 78.00
282 195.00 81.00
283 195.00 84.00
284 195.00 87.00
285 195.00 90.00
286 195.00 93.00
287 195.00 96.00
288 195.00 99.00
289 195.00 102.00
290 195.00 105.00
291 198.00 105.00
292 201.00 105.00
293 204.00 105.00
294 207.00 105.00
295 210.00 105.00
296 213.00 105.00
297 216.00 105.00
298 219.00 105.00
299 222.00 105.00
300 225.00 105.00
301 231.00 105.00
302 237.00 105.00
303 243.00 105.00
304 249.00 105.00
305 255.00 105.00
306 261.00 105.00
307 267.00 105.00
308 273.00 105.00
309 279.00 105.00
310 285.00 105.00
311 291.00 105.00
312 297.00 105.00
313 303.00 105.00
314 309.00 105.00
315 315.00 105.00
316 321.00 105.00
317 327.00 105.00
318 333.00 105.00
319 339.00 105.00
320 345.00 105.00
321 348.00 105.00
322 351.00 105.00
323 354.00 105.00
324 357.00 105.00
325 360.00 105.00
326 363.00 105.00
327 366.00 105.00
328 369.00 105.00
329 372.00 105.00
330 375.00 105.00
331 375.00 108.00
332 375.00 111.00
333 375.00 114.00
334 375.00 117.00
335 375.00 120.00
336 375.00 123.00
337 375.00 126.00
338 375.00 129.00
339 375.00 132.00
340 375.00 135.00
341 372.00 135.00
342 369.00 135.00
343 366.00 135.00
344 363.00 135.00
345 360.00 135.00
346 357.00 135.00
347 354.00 135.00
348 351.00 135.00
349 348.00 135.00
350 345.00 135.00
